/* Objective function */
max: -1000000 x111 -1000000 x112 -1000000 x113 -1000000 x119 -1000000 x122 -1000000 x123 -1000000 x124 -1000000 x126
 -1000000 x129 -1000000 x131 -1000000 x133 -1000000 x135 -1000000 x138 -1000000 x139 -1000000 x143 -1000000 x144
 -1000000 x145 -1000000 x149 +1000000 x153 -1000000 x155 -1000000 x157 -1000000 x158 -1000000 x159 -1000000 x163
 -1000000 x169 -1000000 x171 -1000000 x173 -1000000 x177 -1000000 x179 -1000000 x181 -1000000 x183 -1000000 x185
 -1000000 x187 -1000000 x188 -1000000 x189 -1000000 x193 -1000000 x194 +1000000 x199 -1000000 x211 -1000000 x212
 -1000000 x214 -1000000 x218 -1000000 x219 -1000000 x222 +1000000 x224 -1000000 x226 -1000000 x228 -1000000 x229
 -1000000 x231 -1000000 x234 -1000000 x235 +1000000 x238 -1000000 x239 -1000000 x244 -1000000 x245 -1000000 x248
 +1000000 x249 -1000000 x253 -1000000 x254 -1000000 x255 -1000000 x257 -1000000 x258 -1000000 x259 -1000000 x264
 -1000000 x268 -1000000 x269 -1000000 x271 -1000000 x274 -1000000 x277 -1000000 x278 -1000000 x279 -1000000 x281
 -1000000 x284 -1000000 x285 -1000000 x287 -1000000 x288 -1000000 x289 -1000000 x293 -1000000 x294 -1000000 x298
 -1000000 x299 -1000000 x311 +1000000 x312 -1000000 x314 -1000000 x317 -1000000 x321 -1000000 x322 -1000000 x324
 -1000000 x326 -1000000 x327 -1000000 x331 -1000000 x332 -1000000 x334 -1000000 x335 -1000000 x337 -1000000 x338
 -1000000 x341 -1000000 x342 +1000000 x344 -1000000 x345 -1000000 x347 -1000000 x349 -1000000 x351 -1000000 x352
 -1000000 x353 -1000000 x354 -1000000 x355 +1000000 x357 -1000000 x358 -1000000 x359 -1000000 x361 -1000000 x362
 -1000000 x364 -1000000 x367 +1000000 x371 -1000000 x372 -1000000 x374 -1000000 x377 -1000000 x381 -1000000 x382
 -1000000 x384 -1000000 x385 -1000000 x387 -1000000 x388 -1000000 x391 -1000000 x392 -1000000 x393 -1000000 x394
 -1000000 x397 -1000000 x399 +1000000 x411 -1000000 x412 -1000000 x415 -1000000 x418 -1000000 x421 +1000000 x422
 -1000000 x424 -1000000 x425 -1000000 x426 -1000000 x428 -1000000 x431 -1000000 x432 +1000000 x435 -1000000 x438
 -1000000 x441 -1000000 x442 -1000000 x444 -1000000 x445 -1000000 x448 -1000000 x449 -1000000 x451 -1000000 x452
 -1000000 x453 -1000000 x455 -1000000 x457 -1000000 x458 -1000000 x459 -1000000 x461 -1000000 x462 -1000000 x465
 -1000000 x468 -1000000 x471 -1000000 x472 -1000000 x475 -1000000 x477 -1000000 x478 -1000000 x481 -1000000 x482
 -1000000 x485 -1000000 x487 +1000000 x488 -1000000 x491 -1000000 x492 -1000000 x493 -1000000 x494 -1000000 x495
 -1000000 x498 -1000000 x499 -1000000 x511 -1000000 x512 -1000000 x517 -1000000 x518 -1000000 x521 -1000000 x522
 -1000000 x524 -1000000 x526 -1000000 x527 -1000000 x528 -1000000 x531 -1000000 x535 -1000000 x537 -1000000 x538
 -1000000 x541 -1000000 x544 -1000000 x545 -1000000 x547 -1000000 x548 -1000000 x549 -1000000 x551 -1000000 x553
 -1000000 x555 -1000000 x557 +1000000 x558 -1000000 x559 -1000000 x561 -1000000 x567 -1000000 x568 -1000000 x571
 +1000000 x577 -1000000 x578 +1000000 x581 -1000000 x585 -1000000 x587 -1000000 x588 -1000000 x591 -1000000 x593
 -1000000 x594 -1000000 x597 -1000000 x598 -1000000 x599 -1000000 x611 -1000000 x612 -1000000 x615 -1000000 x622
 -1000000 x624 -1000000 x625 -1000000 x626 -1000000 x631 -1000000 x635 -1000000 x638 -1000000 x644 +1000000 x645
 -1000000 x649 -1000000 x653 -1000000 x655 -1000000 x657 -1000000 x658 -1000000 x659 -1000000 x665 -1000000 x671
 -1000000 x675 -1000000 x677 -1000000 x681 -1000000 x685 -1000000 x687 -1000000 x688 -1000000 x693 -1000000 x694
 -1000000 x695 -1000000 x699 -1000000 x711 -1000000 x712 -1000000 x714 -1000000 x715 -1000000 x719 -1000000 x722
 -1000000 x724 -1000000 x725 -1000000 x726 -1000000 x729 -1000000 x731 -1000000 x734 -1000000 x735 -1000000 x738
 -1000000 x739 -1000000 x744 -1000000 x745 -1000000 x749 -1000000 x753 -1000000 x754 -1000000 x755 -1000000 x757
 -1000000 x758 +1000000 x759 -1000000 x764 -1000000 x765 -1000000 x769 -1000000 x771 -1000000 x774 -1000000 x775
 -1000000 x777 -1000000 x779 -1000000 x781 -1000000 x784 +1000000 x785 -1000000 x787 -1000000 x788 -1000000 x789
 -1000000 x793 +1000000 x794 -1000000 x795 -1000000 x799 -1000000 x811 -1000000 x812 -1000000 x813 -1000000 x816
 -1000000 x821 -1000000 x822 -1000000 x823 -1000000 x824 +1000000 x826 +1000000 x831 -1000000 x833 -1000000 x835
 -1000000 x836 -1000000 x838 -1000000 x841 -1000000 x843 -1000000 x844 -1000000 x845 -1000000 x846 -1000000 x849
 -1000000 x851 -1000000 x853 -1000000 x855 -1000000 x856 -1000000 x857 -1000000 x858 -1000000 x859 -1000000 x861
 -1000000 x863 -1000000 x866 -1000000 x871 -1000000 x873 -1000000 x876 -1000000 x877 -1000000 x881 -1000000 x883
 -1000000 x885 -1000000 x886 -1000000 x887 -1000000 x888 -1000000 x891 +1000000 x893 -1000000 x894 -1000000 x896
 -1000000 x899 -1000000 x911 -1000000 x912 -1000000 x915 -1000000 x917 -1000000 x922 -1000000 x924 -1000000 x925
 -1000000 x926 -1000000 x927 -1000000 x931 -1000000 x935 -1000000 x937 -1000000 x938 -1000000 x944 -1000000 x945
 -1000000 x947 -1000000 x949 -1000000 x953 +1000000 x955 -1000000 x957 -1000000 x958 -1000000 x959 -1000000 x965
 -1000000 x967 -1000000 x971 -1000000 x975 -1000000 x977 -1000000 x981 -1000000 x985 +1000000 x987 -1000000 x988
 -1000000 x993 -1000000 x994 -1000000 x995 -1000000 x997 -1000000 x999;

/* Constraints */
+x111 +x112 +x113 +x114 +x115 +x116 +x117 +x118 +x119 = 1;
+x121 +x122 +x123 +x124 +x125 +x126 +x127 +x128 +x129 = 1;
+x131 +x132 +x133 +x134 +x135 +x136 +x137 +x138 +x139 = 1;
+x141 +x142 +x143 +x144 +x145 +x146 +x147 +x148 +x149 = 1;
+x151 +x152 +x153 +x154 +x155 +x156 +x157 +x158 +x159 = 1;
+x161 +x162 +x163 +x164 +x165 +x166 +x167 +x168 +x169 = 1;
+x171 +x172 +x173 +x174 +x175 +x176 +x177 +x178 +x179 = 1;
+x181 +x182 +x183 +x184 +x185 +x186 +x187 +x188 +x189 = 1;
+x191 +x192 +x193 +x194 +x195 +x196 +x197 +x198 +x199 = 1;
+x211 +x212 +x213 +x214 +x215 +x216 +x217 +x218 +x219 = 1;
+x221 +x222 +x223 +x224 +x225 +x226 +x227 +x228 +x229 = 1;
+x231 +x232 +x233 +x234 +x235 +x236 +x237 +x238 +x239 = 1;
+x241 +x242 +x243 +x244 +x245 +x246 +x247 +x248 +x249 = 1;
+x251 +x252 +x253 +x254 +x255 +x256 +x257 +x258 +x259 = 1;
+x261 +x262 +x263 +x264 +x265 +x266 +x267 +x268 +x269 = 1;
+x271 +x272 +x273 +x274 +x275 +x276 +x277 +x278 +x279 = 1;
+x281 +x282 +x283 +x284 +x285 +x286 +x287 +x288 +x289 = 1;
+x291 +x292 +x293 +x294 +x295 +x296 +x297 +x298 +x299 = 1;
+x311 +x312 +x313 +x314 +x315 +x316 +x317 +x318 +x319 = 1;
+x321 +x322 +x323 +x324 +x325 +x326 +x327 +x328 +x329 = 1;
+x331 +x332 +x333 +x334 +x335 +x336 +x337 +x338 +x339 = 1;
+x341 +x342 +x343 +x344 +x345 +x346 +x347 +x348 +x349 = 1;
+x351 +x352 +x353 +x354 +x355 +x356 +x357 +x358 +x359 = 1;
+x361 +x362 +x363 +x364 +x365 +x366 +x367 +x368 +x369 = 1;
+x371 +x372 +x373 +x374 +x375 +x376 +x377 +x378 +x379 = 1;
+x381 +x382 +x383 +x384 +x385 +x386 +x387 +x388 +x389 = 1;
+x391 +x392 +x393 +x394 +x395 +x396 +x397 +x398 +x399 = 1;
+x411 +x412 +x413 +x414 +x415 +x416 +x417 +x418 +x419 = 1;
+x421 +x422 +x423 +x424 +x425 +x426 +x427 +x428 +x429 = 1;
+x431 +x432 +x433 +x434 +x435 +x436 +x437 +x438 +x439 = 1;
+x441 +x442 +x443 +x444 +x445 +x446 +x447 +x448 +x449 = 1;
+x451 +x452 +x453 +x454 +x455 +x456 +x457 +x458 +x459 = 1;
+x461 +x462 +x463 +x464 +x465 +x466 +x467 +x468 +x469 = 1;
+x471 +x472 +x473 +x474 +x475 +x476 +x477 +x478 +x479 = 1;
+x481 +x482 +x483 +x484 +x485 +x486 +x487 +x488 +x489 = 1;
+x491 +x492 +x493 +x494 +x495 +x496 +x497 +x498 +x499 = 1;
+x511 +x512 +x513 +x514 +x515 +x516 +x517 +x518 +x519 = 1;
+x521 +x522 +x523 +x524 +x525 +x526 +x527 +x528 +x529 = 1;
+x531 +x532 +x533 +x534 +x535 +x536 +x537 +x538 +x539 = 1;
+x541 +x542 +x543 +x544 +x545 +x546 +x547 +x548 +x549 = 1;
+x551 +x552 +x553 +x554 +x555 +x556 +x557 +x558 +x559 = 1;
+x561 +x562 +x563 +x564 +x565 +x566 +x567 +x568 +x569 = 1;
+x571 +x572 +x573 +x574 +x575 +x576 +x577 +x578 +x579 = 1;
+x581 +x582 +x583 +x584 +x585 +x586 +x587 +x588 +x589 = 1;
+x591 +x592 +x593 +x594 +x595 +x596 +x597 +x598 +x599 = 1;
+x611 +x612 +x613 +x614 +x615 +x616 +x617 +x618 +x619 = 1;
+x621 +x622 +x623 +x624 +x625 +x626 +x627 +x628 +x629 = 1;
+x631 +x632 +x633 +x634 +x635 +x636 +x637 +x638 +x639 = 1;
+x641 +x642 +x643 +x644 +x645 +x646 +x647 +x648 +x649 = 1;
+x651 +x652 +x653 +x654 +x655 +x656 +x657 +x658 +x659 = 1;
+x661 +x662 +x663 +x664 +x665 +x666 +x667 +x668 +x669 = 1;
+x671 +x672 +x673 +x674 +x675 +x676 +x677 +x678 +x679 = 1;
+x681 +x682 +x683 +x684 +x685 +x686 +x687 +x688 +x689 = 1;
+x691 +x692 +x693 +x694 +x695 +x696 +x697 +x698 +x699 = 1;
+x711 +x712 +x713 +x714 +x715 +x716 +x717 +x718 +x719 = 1;
+x721 +x722 +x723 +x724 +x725 +x726 +x727 +x728 +x729 = 1;
+x731 +x732 +x733 +x734 +x735 +x736 +x737 +x738 +x739 = 1;
+x741 +x742 +x743 +x744 +x745 +x746 +x747 +x748 +x749 = 1;
+x751 +x752 +x753 +x754 +x755 +x756 +x757 +x758 +x759 = 1;
+x761 +x762 +x763 +x764 +x765 +x766 +x767 +x768 +x769 = 1;
+x771 +x772 +x773 +x774 +x775 +x776 +x777 +x778 +x779 = 1;
+x781 +x782 +x783 +x784 +x785 +x786 +x787 +x788 +x789 = 1;
+x791 +x792 +x793 +x794 +x795 +x796 +x797 +x798 +x799 = 1;
+x811 +x812 +x813 +x814 +x815 +x816 +x817 +x818 +x819 = 1;
+x821 +x822 +x823 +x824 +x825 +x826 +x827 +x828 +x829 = 1;
+x831 +x832 +x833 +x834 +x835 +x836 +x837 +x838 +x839 = 1;
+x841 +x842 +x843 +x844 +x845 +x846 +x847 +x848 +x849 = 1;
+x851 +x852 +x853 +x854 +x855 +x856 +x857 +x858 +x859 = 1;
+x861 +x862 +x863 +x864 +x865 +x866 +x867 +x868 +x869 = 1;
+x871 +x872 +x873 +x874 +x875 +x876 +x877 +x878 +x879 = 1;
+x881 +x882 +x883 +x884 +x885 +x886 +x887 +x888 +x889 = 1;
+x891 +x892 +x893 +x894 +x895 +x896 +x897 +x898 +x899 = 1;
+x911 +x912 +x913 +x914 +x915 +x916 +x917 +x918 +x919 = 1;
+x921 +x922 +x923 +x924 +x925 +x926 +x927 +x928 +x929 = 1;
+x931 +x932 +x933 +x934 +x935 +x936 +x937 +x938 +x939 = 1;
+x941 +x942 +x943 +x944 +x945 +x946 +x947 +x948 +x949 = 1;
+x951 +x952 +x953 +x954 +x955 +x956 +x957 +x958 +x959 = 1;
+x961 +x962 +x963 +x964 +x965 +x966 +x967 +x968 +x969 = 1;
+x971 +x972 +x973 +x974 +x975 +x976 +x977 +x978 +x979 = 1;
+x981 +x982 +x983 +x984 +x985 +x986 +x987 +x988 +x989 = 1;
+x991 +x992 +x993 +x994 +x995 +x996 +x997 +x998 +x999 = 1;
+x111 +x121 +x131 +x141 +x151 +x161 +x171 +x181 +x191 = 1;
+x112 +x122 +x132 +x142 +x152 +x162 +x172 +x182 +x192 = 1;
+x113 +x123 +x133 +x143 +x153 +x163 +x173 +x183 +x193 = 1;
+x114 +x124 +x134 +x144 +x154 +x164 +x174 +x184 +x194 = 1;
+x115 +x125 +x135 +x145 +x155 +x165 +x175 +x185 +x195 = 1;
+x116 +x126 +x136 +x146 +x156 +x166 +x176 +x186 +x196 = 1;
+x117 +x127 +x137 +x147 +x157 +x167 +x177 +x187 +x197 = 1;
+x118 +x128 +x138 +x148 +x158 +x168 +x178 +x188 +x198 = 1;
+x119 +x129 +x139 +x149 +x159 +x169 +x179 +x189 +x199 = 1;
+x211 +x221 +x231 +x241 +x251 +x261 +x271 +x281 +x291 = 1;
+x212 +x222 +x232 +x242 +x252 +x262 +x272 +x282 +x292 = 1;
+x213 +x223 +x233 +x243 +x253 +x263 +x273 +x283 +x293 = 1;
+x214 +x224 +x234 +x244 +x254 +x264 +x274 +x284 +x294 = 1;
+x215 +x225 +x235 +x245 +x255 +x265 +x275 +x285 +x295 = 1;
+x216 +x226 +x236 +x246 +x256 +x266 +x276 +x286 +x296 = 1;
+x217 +x227 +x237 +x247 +x257 +x267 +x277 +x287 +x297 = 1;
+x218 +x228 +x238 +x248 +x258 +x268 +x278 +x288 +x298 = 1;
+x219 +x229 +x239 +x249 +x259 +x269 +x279 +x289 +x299 = 1;
+x311 +x321 +x331 +x341 +x351 +x361 +x371 +x381 +x391 = 1;
+x312 +x322 +x332 +x342 +x352 +x362 +x372 +x382 +x392 = 1;
+x313 +x323 +x333 +x343 +x353 +x363 +x373 +x383 +x393 = 1;
+x314 +x324 +x334 +x344 +x354 +x364 +x374 +x384 +x394 = 1;
+x315 +x325 +x335 +x345 +x355 +x365 +x375 +x385 +x395 = 1;
+x316 +x326 +x336 +x346 +x356 +x366 +x376 +x386 +x396 = 1;
+x317 +x327 +x337 +x347 +x357 +x367 +x377 +x387 +x397 = 1;
+x318 +x328 +x338 +x348 +x358 +x368 +x378 +x388 +x398 = 1;
+x319 +x329 +x339 +x349 +x359 +x369 +x379 +x389 +x399 = 1;
+x411 +x421 +x431 +x441 +x451 +x461 +x471 +x481 +x491 = 1;
+x412 +x422 +x432 +x442 +x452 +x462 +x472 +x482 +x492 = 1;
+x413 +x423 +x433 +x443 +x453 +x463 +x473 +x483 +x493 = 1;
+x414 +x424 +x434 +x444 +x454 +x464 +x474 +x484 +x494 = 1;
+x415 +x425 +x435 +x445 +x455 +x465 +x475 +x485 +x495 = 1;
+x416 +x426 +x436 +x446 +x456 +x466 +x476 +x486 +x496 = 1;
+x417 +x427 +x437 +x447 +x457 +x467 +x477 +x487 +x497 = 1;
+x418 +x428 +x438 +x448 +x458 +x468 +x478 +x488 +x498 = 1;
+x419 +x429 +x439 +x449 +x459 +x469 +x479 +x489 +x499 = 1;
+x511 +x521 +x531 +x541 +x551 +x561 +x571 +x581 +x591 = 1;
+x512 +x522 +x532 +x542 +x552 +x562 +x572 +x582 +x592 = 1;
+x513 +x523 +x533 +x543 +x553 +x563 +x573 +x583 +x593 = 1;
+x514 +x524 +x534 +x544 +x554 +x564 +x574 +x584 +x594 = 1;
+x515 +x525 +x535 +x545 +x555 +x565 +x575 +x585 +x595 = 1;
+x516 +x526 +x536 +x546 +x556 +x566 +x576 +x586 +x596 = 1;
+x517 +x527 +x537 +x547 +x557 +x567 +x577 +x587 +x597 = 1;
+x518 +x528 +x538 +x548 +x558 +x568 +x578 +x588 +x598 = 1;
+x519 +x529 +x539 +x549 +x559 +x569 +x579 +x589 +x599 = 1;
+x611 +x621 +x631 +x641 +x651 +x661 +x671 +x681 +x691 = 1;
+x612 +x622 +x632 +x642 +x652 +x662 +x672 +x682 +x692 = 1;
+x613 +x623 +x633 +x643 +x653 +x663 +x673 +x683 +x693 = 1;
+x614 +x624 +x634 +x644 +x654 +x664 +x674 +x684 +x694 = 1;
+x615 +x625 +x635 +x645 +x655 +x665 +x675 +x685 +x695 = 1;
+x616 +x626 +x636 +x646 +x656 +x666 +x676 +x686 +x696 = 1;
+x617 +x627 +x637 +x647 +x657 +x667 +x677 +x687 +x697 = 1;
+x618 +x628 +x638 +x648 +x658 +x668 +x678 +x688 +x698 = 1;
+x619 +x629 +x639 +x649 +x659 +x669 +x679 +x689 +x699 = 1;
+x711 +x721 +x731 +x741 +x751 +x761 +x771 +x781 +x791 = 1;
+x712 +x722 +x732 +x742 +x752 +x762 +x772 +x782 +x792 = 1;
+x713 +x723 +x733 +x743 +x753 +x763 +x773 +x783 +x793 = 1;
+x714 +x724 +x734 +x744 +x754 +x764 +x774 +x784 +x794 = 1;
+x715 +x725 +x735 +x745 +x755 +x765 +x775 +x785 +x795 = 1;
+x716 +x726 +x736 +x746 +x756 +x766 +x776 +x786 +x796 = 1;
+x717 +x727 +x737 +x747 +x757 +x767 +x777 +x787 +x797 = 1;
+x718 +x728 +x738 +x748 +x758 +x768 +x778 +x788 +x798 = 1;
+x719 +x729 +x739 +x749 +x759 +x769 +x779 +x789 +x799 = 1;
+x811 +x821 +x831 +x841 +x851 +x861 +x871 +x881 +x891 = 1;
+x812 +x822 +x832 +x842 +x852 +x862 +x872 +x882 +x892 = 1;
+x813 +x823 +x833 +x843 +x853 +x863 +x873 +x883 +x893 = 1;
+x814 +x824 +x834 +x844 +x854 +x864 +x874 +x884 +x894 = 1;
+x815 +x825 +x835 +x845 +x855 +x865 +x875 +x885 +x895 = 1;
+x816 +x826 +x836 +x846 +x856 +x866 +x876 +x886 +x896 = 1;
+x817 +x827 +x837 +x847 +x857 +x867 +x877 +x887 +x897 = 1;
+x818 +x828 +x838 +x848 +x858 +x868 +x878 +x888 +x898 = 1;
+x819 +x829 +x839 +x849 +x859 +x869 +x879 +x889 +x899 = 1;
+x911 +x921 +x931 +x941 +x951 +x961 +x971 +x981 +x991 = 1;
+x912 +x922 +x932 +x942 +x952 +x962 +x972 +x982 +x992 = 1;
+x913 +x923 +x933 +x943 +x953 +x963 +x973 +x983 +x993 = 1;
+x914 +x924 +x934 +x944 +x954 +x964 +x974 +x984 +x994 = 1;
+x915 +x925 +x935 +x945 +x955 +x965 +x975 +x985 +x995 = 1;
+x916 +x926 +x936 +x946 +x956 +x966 +x976 +x986 +x996 = 1;
+x917 +x927 +x937 +x947 +x957 +x967 +x977 +x987 +x997 = 1;
+x918 +x928 +x938 +x948 +x958 +x968 +x978 +x988 +x998 = 1;
+x919 +x929 +x939 +x949 +x959 +x969 +x979 +x989 +x999 = 1;
+x111 +x211 +x311 +x411 +x511 +x611 +x711 +x811 +x911 = 1;
+x112 +x212 +x312 +x412 +x512 +x612 +x712 +x812 +x912 = 1;
+x113 +x213 +x313 +x413 +x513 +x613 +x713 +x813 +x913 = 1;
+x114 +x214 +x314 +x414 +x514 +x614 +x714 +x814 +x914 = 1;
+x115 +x215 +x315 +x415 +x515 +x615 +x715 +x815 +x915 = 1;
+x116 +x216 +x316 +x416 +x516 +x616 +x716 +x816 +x916 = 1;
+x117 +x217 +x317 +x417 +x517 +x617 +x717 +x817 +x917 = 1;
+x118 +x218 +x318 +x418 +x518 +x618 +x718 +x818 +x918 = 1;
+x119 +x219 +x319 +x419 +x519 +x619 +x719 +x819 +x919 = 1;
+x121 +x221 +x321 +x421 +x521 +x621 +x721 +x821 +x921 = 1;
+x122 +x222 +x322 +x422 +x522 +x622 +x722 +x822 +x922 = 1;
+x123 +x223 +x323 +x423 +x523 +x623 +x723 +x823 +x923 = 1;
+x124 +x224 +x324 +x424 +x524 +x624 +x724 +x824 +x924 = 1;
+x125 +x225 +x325 +x425 +x525 +x625 +x725 +x825 +x925 = 1;
+x126 +x226 +x326 +x426 +x526 +x626 +x726 +x826 +x926 = 1;
+x127 +x227 +x327 +x427 +x527 +x627 +x727 +x827 +x927 = 1;
+x128 +x228 +x328 +x428 +x528 +x628 +x728 +x828 +x928 = 1;
+x129 +x229 +x329 +x429 +x529 +x629 +x729 +x829 +x929 = 1;
+x131 +x231 +x331 +x431 +x531 +x631 +x731 +x831 +x931 = 1;
+x132 +x232 +x332 +x432 +x532 +x632 +x732 +x832 +x932 = 1;
+x133 +x233 +x333 +x433 +x533 +x633 +x733 +x833 +x933 = 1;
+x134 +x234 +x334 +x434 +x534 +x634 +x734 +x834 +x934 = 1;
+x135 +x235 +x335 +x435 +x535 +x635 +x735 +x835 +x935 = 1;
+x136 +x236 +x336 +x436 +x536 +x636 +x736 +x836 +x936 = 1;
+x137 +x237 +x337 +x437 +x537 +x637 +x737 +x837 +x937 = 1;
+x138 +x238 +x338 +x438 +x538 +x638 +x738 +x838 +x938 = 1;
+x139 +x239 +x339 +x439 +x539 +x639 +x739 +x839 +x939 = 1;
+x141 +x241 +x341 +x441 +x541 +x641 +x741 +x841 +x941 = 1;
+x142 +x242 +x342 +x442 +x542 +x642 +x742 +x842 +x942 = 1;
+x143 +x243 +x343 +x443 +x543 +x643 +x743 +x843 +x943 = 1;
+x144 +x244 +x344 +x444 +x544 +x644 +x744 +x844 +x944 = 1;
+x145 +x245 +x345 +x445 +x545 +x645 +x745 +x845 +x945 = 1;
+x146 +x246 +x346 +x446 +x546 +x646 +x746 +x846 +x946 = 1;
+x147 +x247 +x347 +x447 +x547 +x647 +x747 +x847 +x947 = 1;
+x148 +x248 +x348 +x448 +x548 +x648 +x748 +x848 +x948 = 1;
+x149 +x249 +x349 +x449 +x549 +x649 +x749 +x849 +x949 = 1;
+x151 +x251 +x351 +x451 +x551 +x651 +x751 +x851 +x951 = 1;
+x152 +x252 +x352 +x452 +x552 +x652 +x752 +x852 +x952 = 1;
+x153 +x253 +x353 +x453 +x553 +x653 +x753 +x853 +x953 = 1;
+x154 +x254 +x354 +x454 +x554 +x654 +x754 +x854 +x954 = 1;
+x155 +x255 +x355 +x455 +x555 +x655 +x755 +x855 +x955 = 1;
+x156 +x256 +x356 +x456 +x556 +x656 +x756 +x856 +x956 = 1;
+x157 +x257 +x357 +x457 +x557 +x657 +x757 +x857 +x957 = 1;
+x158 +x258 +x358 +x458 +x558 +x658 +x758 +x858 +x958 = 1;
+x159 +x259 +x359 +x459 +x559 +x659 +x759 +x859 +x959 = 1;
+x161 +x261 +x361 +x461 +x561 +x661 +x761 +x861 +x961 = 1;
+x162 +x262 +x362 +x462 +x562 +x662 +x762 +x862 +x962 = 1;
+x163 +x263 +x363 +x463 +x563 +x663 +x763 +x863 +x963 = 1;
+x164 +x264 +x364 +x464 +x564 +x664 +x764 +x864 +x964 = 1;
+x165 +x265 +x365 +x465 +x565 +x665 +x765 +x865 +x965 = 1;
+x166 +x266 +x366 +x466 +x566 +x666 +x766 +x866 +x966 = 1;
+x167 +x267 +x367 +x467 +x567 +x667 +x767 +x867 +x967 = 1;
+x168 +x268 +x368 +x468 +x568 +x668 +x768 +x868 +x968 = 1;
+x169 +x269 +x369 +x469 +x569 +x669 +x769 +x869 +x969 = 1;
+x171 +x271 +x371 +x471 +x571 +x671 +x771 +x871 +x971 = 1;
+x172 +x272 +x372 +x472 +x572 +x672 +x772 +x872 +x972 = 1;
+x173 +x273 +x373 +x473 +x573 +x673 +x773 +x873 +x973 = 1;
+x174 +x274 +x374 +x474 +x574 +x674 +x774 +x874 +x974 = 1;
+x175 +x275 +x375 +x475 +x575 +x675 +x775 +x875 +x975 = 1;
+x176 +x276 +x376 +x476 +x576 +x676 +x776 +x876 +x976 = 1;
+x177 +x277 +x377 +x477 +x577 +x677 +x777 +x877 +x977 = 1;
+x178 +x278 +x378 +x478 +x578 +x678 +x778 +x878 +x978 = 1;
+x179 +x279 +x379 +x479 +x579 +x679 +x779 +x879 +x979 = 1;
+x181 +x281 +x381 +x481 +x581 +x681 +x781 +x881 +x981 = 1;
+x182 +x282 +x382 +x482 +x582 +x682 +x782 +x882 +x982 = 1;
+x183 +x283 +x383 +x483 +x583 +x683 +x783 +x883 +x983 = 1;
+x184 +x284 +x384 +x484 +x584 +x684 +x784 +x884 +x984 = 1;
+x185 +x285 +x385 +x485 +x585 +x685 +x785 +x885 +x985 = 1;
+x186 +x286 +x386 +x486 +x586 +x686 +x786 +x886 +x986 = 1;
+x187 +x287 +x387 +x487 +x587 +x687 +x787 +x887 +x987 = 1;
+x188 +x288 +x388 +x488 +x588 +x688 +x788 +x888 +x988 = 1;
+x189 +x289 +x389 +x489 +x589 +x689 +x789 +x889 +x989 = 1;
+x191 +x291 +x391 +x491 +x591 +x691 +x791 +x891 +x991 = 1;
+x192 +x292 +x392 +x492 +x592 +x692 +x792 +x892 +x992 = 1;
+x193 +x293 +x393 +x493 +x593 +x693 +x793 +x893 +x993 = 1;
+x194 +x294 +x394 +x494 +x594 +x694 +x794 +x894 +x994 = 1;
+x195 +x295 +x395 +x495 +x595 +x695 +x795 +x895 +x995 = 1;
+x196 +x296 +x396 +x496 +x596 +x696 +x796 +x896 +x996 = 1;
+x197 +x297 +x397 +x497 +x597 +x697 +x797 +x897 +x997 = 1;
+x198 +x298 +x398 +x498 +x598 +x698 +x798 +x898 +x998 = 1;
+x199 +x299 +x399 +x499 +x599 +x699 +x799 +x899 +x999 = 1;
+x111 +x121 +x131 +x211 +x221 +x231 +x311 +x321 +x331 = 1;
+x112 +x122 +x132 +x212 +x222 +x232 +x312 +x322 +x332 = 1;
+x113 +x123 +x133 +x213 +x223 +x233 +x313 +x323 +x333 = 1;
+x114 +x124 +x134 +x214 +x224 +x234 +x314 +x324 +x334 = 1;
+x115 +x125 +x135 +x215 +x225 +x235 +x315 +x325 +x335 = 1;
+x116 +x126 +x136 +x216 +x226 +x236 +x316 +x326 +x336 = 1;
+x117 +x127 +x137 +x217 +x227 +x237 +x317 +x327 +x337 = 1;
+x118 +x128 +x138 +x218 +x228 +x238 +x318 +x328 +x338 = 1;
+x119 +x129 +x139 +x219 +x229 +x239 +x319 +x329 +x339 = 1;
+x141 +x151 +x161 +x241 +x251 +x261 +x341 +x351 +x361 = 1;
+x142 +x152 +x162 +x242 +x252 +x262 +x342 +x352 +x362 = 1;
+x143 +x153 +x163 +x243 +x253 +x263 +x343 +x353 +x363 = 1;
+x144 +x154 +x164 +x244 +x254 +x264 +x344 +x354 +x364 = 1;
+x145 +x155 +x165 +x245 +x255 +x265 +x345 +x355 +x365 = 1;
+x146 +x156 +x166 +x246 +x256 +x266 +x346 +x356 +x366 = 1;
+x147 +x157 +x167 +x247 +x257 +x267 +x347 +x357 +x367 = 1;
+x148 +x158 +x168 +x248 +x258 +x268 +x348 +x358 +x368 = 1;
+x149 +x159 +x169 +x249 +x259 +x269 +x349 +x359 +x369 = 1;
+x171 +x181 +x191 +x271 +x281 +x291 +x371 +x381 +x391 = 1;
+x172 +x182 +x192 +x272 +x282 +x292 +x372 +x382 +x392 = 1;
+x173 +x183 +x193 +x273 +x283 +x293 +x373 +x383 +x393 = 1;
+x174 +x184 +x194 +x274 +x284 +x294 +x374 +x384 +x394 = 1;
+x175 +x185 +x195 +x275 +x285 +x295 +x375 +x385 +x395 = 1;
+x176 +x186 +x196 +x276 +x286 +x296 +x376 +x386 +x396 = 1;
+x177 +x187 +x197 +x277 +x287 +x297 +x377 +x387 +x397 = 1;
+x178 +x188 +x198 +x278 +x288 +x298 +x378 +x388 +x398 = 1;
+x179 +x189 +x199 +x279 +x289 +x299 +x379 +x389 +x399 = 1;
+x411 +x421 +x431 +x511 +x521 +x531 +x611 +x621 +x631 = 1;
+x412 +x422 +x432 +x512 +x522 +x532 +x612 +x622 +x632 = 1;
+x413 +x423 +x433 +x513 +x523 +x533 +x613 +x623 +x633 = 1;
+x414 +x424 +x434 +x514 +x524 +x534 +x614 +x624 +x634 = 1;
+x415 +x425 +x435 +x515 +x525 +x535 +x615 +x625 +x635 = 1;
+x416 +x426 +x436 +x516 +x526 +x536 +x616 +x626 +x636 = 1;
+x417 +x427 +x437 +x517 +x527 +x537 +x617 +x627 +x637 = 1;
+x418 +x428 +x438 +x518 +x528 +x538 +x618 +x628 +x638 = 1;
+x419 +x429 +x439 +x519 +x529 +x539 +x619 +x629 +x639 = 1;
+x441 +x451 +x461 +x541 +x551 +x561 +x641 +x651 +x661 = 1;
+x442 +x452 +x462 +x542 +x552 +x562 +x642 +x652 +x662 = 1;
+x443 +x453 +x463 +x543 +x553 +x563 +x643 +x653 +x663 = 1;
+x444 +x454 +x464 +x544 +x554 +x564 +x644 +x654 +x664 = 1;
+x445 +x455 +x465 +x545 +x555 +x565 +x645 +x655 +x665 = 1;
+x446 +x456 +x466 +x546 +x556 +x566 +x646 +x656 +x666 = 1;
+x447 +x457 +x467 +x547 +x557 +x567 +x647 +x657 +x667 = 1;
+x448 +x458 +x468 +x548 +x558 +x568 +x648 +x658 +x668 = 1;
+x449 +x459 +x469 +x549 +x559 +x569 +x649 +x659 +x669 = 1;
+x471 +x481 +x491 +x571 +x581 +x591 +x671 +x681 +x691 = 1;
+x472 +x482 +x492 +x572 +x582 +x592 +x672 +x682 +x692 = 1;
+x473 +x483 +x493 +x573 +x583 +x593 +x673 +x683 +x693 = 1;
+x474 +x484 +x494 +x574 +x584 +x594 +x674 +x684 +x694 = 1;
+x475 +x485 +x495 +x575 +x585 +x595 +x675 +x685 +x695 = 1;
+x476 +x486 +x496 +x576 +x586 +x596 +x676 +x686 +x696 = 1;
+x477 +x487 +x497 +x577 +x587 +x597 +x677 +x687 +x697 = 1;
+x478 +x488 +x498 +x578 +x588 +x598 +x678 +x688 +x698 = 1;
+x479 +x489 +x499 +x579 +x589 +x599 +x679 +x689 +x699 = 1;
+x711 +x721 +x731 +x811 +x821 +x831 +x911 +x921 +x931 = 1;
+x712 +x722 +x732 +x812 +x822 +x832 +x912 +x922 +x932 = 1;
+x713 +x723 +x733 +x813 +x823 +x833 +x913 +x923 +x933 = 1;
+x714 +x724 +x734 +x814 +x824 +x834 +x914 +x924 +x934 = 1;
+x715 +x725 +x735 +x815 +x825 +x835 +x915 +x925 +x935 = 1;
+x716 +x726 +x736 +x816 +x826 +x836 +x916 +x926 +x936 = 1;
+x717 +x727 +x737 +x817 +x827 +x837 +x917 +x927 +x937 = 1;
+x718 +x728 +x738 +x818 +x828 +x838 +x918 +x928 +x938 = 1;
+x719 +x729 +x739 +x819 +x829 +x839 +x919 +x929 +x939 = 1;
+x741 +x751 +x761 +x841 +x851 +x861 +x941 +x951 +x961 = 1;
+x742 +x752 +x762 +x842 +x852 +x862 +x942 +x952 +x962 = 1;
+x743 +x753 +x763 +x843 +x853 +x863 +x943 +x953 +x963 = 1;
+x744 +x754 +x764 +x844 +x854 +x864 +x944 +x954 +x964 = 1;
+x745 +x755 +x765 +x845 +x855 +x865 +x945 +x955 +x965 = 1;
+x746 +x756 +x766 +x846 +x856 +x866 +x946 +x956 +x966 = 1;
+x747 +x757 +x767 +x847 +x857 +x867 +x947 +x957 +x967 = 1;
+x748 +x758 +x768 +x848 +x858 +x868 +x948 +x958 +x968 = 1;
+x749 +x759 +x769 +x849 +x859 +x869 +x949 +x959 +x969 = 1;
+x771 +x781 +x791 +x871 +x881 +x891 +x971 +x981 +x991 = 1;
+x772 +x782 +x792 +x872 +x882 +x892 +x972 +x982 +x992 = 1;
+x773 +x783 +x793 +x873 +x883 +x893 +x973 +x983 +x993 = 1;
+x774 +x784 +x794 +x874 +x884 +x894 +x974 +x984 +x994 = 1;
+x775 +x785 +x795 +x875 +x885 +x895 +x975 +x985 +x995 = 1;
+x776 +x786 +x796 +x876 +x886 +x896 +x976 +x986 +x996 = 1;
+x777 +x787 +x797 +x877 +x887 +x897 +x977 +x987 +x997 = 1;
+x778 +x788 +x798 +x878 +x888 +x898 +x978 +x988 +x998 = 1;
+x779 +x789 +x799 +x879 +x889 +x899 +x979 +x989 +x999 = 1;

/* Variable bounds */
x111 <= 1;
x112 <= 1;
x113 <= 1;
x114 <= 1;
x115 <= 1;
x116 <= 1;
x117 <= 1;
x118 <= 1;
x119 <= 1;
x121 <= 1;
x122 <= 1;
x123 <= 1;
x124 <= 1;
x125 <= 1;
x126 <= 1;
x127 <= 1;
x128 <= 1;
x129 <= 1;
x131 <= 1;
x132 <= 1;
x133 <= 1;
x134 <= 1;
x135 <= 1;
x136 <= 1;
x137 <= 1;
x138 <= 1;
x139 <= 1;
x141 <= 1;
x142 <= 1;
x143 <= 1;
x144 <= 1;
x145 <= 1;
x146 <= 1;
x147 <= 1;
x148 <= 1;
x149 <= 1;
x151 <= 1;
x152 <= 1;
x153 <= 1;
x154 <= 1;
x155 <= 1;
x156 <= 1;
x157 <= 1;
x158 <= 1;
x159 <= 1;
x161 <= 1;
x162 <= 1;
x163 <= 1;
x164 <= 1;
x165 <= 1;
x166 <= 1;
x167 <= 1;
x168 <= 1;
x169 <= 1;
x171 <= 1;
x172 <= 1;
x173 <= 1;
x174 <= 1;
x175 <= 1;
x176 <= 1;
x177 <= 1;
x178 <= 1;
x179 <= 1;
x181 <= 1;
x182 <= 1;
x183 <= 1;
x184 <= 1;
x185 <= 1;
x186 <= 1;
x187 <= 1;
x188 <= 1;
x189 <= 1;
x191 <= 1;
x192 <= 1;
x193 <= 1;
x194 <= 1;
x195 <= 1;
x196 <= 1;
x197 <= 1;
x198 <= 1;
x199 <= 1;
x211 <= 1;
x212 <= 1;
x213 <= 1;
x214 <= 1;
x215 <= 1;
x216 <= 1;
x217 <= 1;
x218 <= 1;
x219 <= 1;
x221 <= 1;
x222 <= 1;
x223 <= 1;
x224 <= 1;
x225 <= 1;
x226 <= 1;
x227 <= 1;
x228 <= 1;
x229 <= 1;
x231 <= 1;
x232 <= 1;
x233 <= 1;
x234 <= 1;
x235 <= 1;
x236 <= 1;
x237 <= 1;
x238 <= 1;
x239 <= 1;
x241 <= 1;
x242 <= 1;
x243 <= 1;
x244 <= 1;
x245 <= 1;
x246 <= 1;
x247 <= 1;
x248 <= 1;
x249 <= 1;
x251 <= 1;
x252 <= 1;
x253 <= 1;
x254 <= 1;
x255 <= 1;
x256 <= 1;
x257 <= 1;
x258 <= 1;
x259 <= 1;
x261 <= 1;
x262 <= 1;
x263 <= 1;
x264 <= 1;
x265 <= 1;
x266 <= 1;
x267 <= 1;
x268 <= 1;
x269 <= 1;
x271 <= 1;
x272 <= 1;
x273 <= 1;
x274 <= 1;
x275 <= 1;
x276 <= 1;
x277 <= 1;
x278 <= 1;
x279 <= 1;
x281 <= 1;
x282 <= 1;
x283 <= 1;
x284 <= 1;
x285 <= 1;
x286 <= 1;
x287 <= 1;
x288 <= 1;
x289 <= 1;
x291 <= 1;
x292 <= 1;
x293 <= 1;
x294 <= 1;
x295 <= 1;
x296 <= 1;
x297 <= 1;
x298 <= 1;
x299 <= 1;
x311 <= 1;
x312 <= 1;
x313 <= 1;
x314 <= 1;
x315 <= 1;
x316 <= 1;
x317 <= 1;
x318 <= 1;
x319 <= 1;
x321 <= 1;
x322 <= 1;
x323 <= 1;
x324 <= 1;
x325 <= 1;
x326 <= 1;
x327 <= 1;
x328 <= 1;
x329 <= 1;
x331 <= 1;
x332 <= 1;
x333 <= 1;
x334 <= 1;
x335 <= 1;
x336 <= 1;
x337 <= 1;
x338 <= 1;
x339 <= 1;
x341 <= 1;
x342 <= 1;
x343 <= 1;
x344 <= 1;
x345 <= 1;
x346 <= 1;
x347 <= 1;
x348 <= 1;
x349 <= 1;
x351 <= 1;
x352 <= 1;
x353 <= 1;
x354 <= 1;
x355 <= 1;
x356 <= 1;
x357 <= 1;
x358 <= 1;
x359 <= 1;
x361 <= 1;
x362 <= 1;
x363 <= 1;
x364 <= 1;
x365 <= 1;
x366 <= 1;
x367 <= 1;
x368 <= 1;
x369 <= 1;
x371 <= 1;
x372 <= 1;
x373 <= 1;
x374 <= 1;
x375 <= 1;
x376 <= 1;
x377 <= 1;
x378 <= 1;
x379 <= 1;
x381 <= 1;
x382 <= 1;
x383 <= 1;
x384 <= 1;
x385 <= 1;
x386 <= 1;
x387 <= 1;
x388 <= 1;
x389 <= 1;
x391 <= 1;
x392 <= 1;
x393 <= 1;
x394 <= 1;
x395 <= 1;
x396 <= 1;
x397 <= 1;
x398 <= 1;
x399 <= 1;
x411 <= 1;
x412 <= 1;
x413 <= 1;
x414 <= 1;
x415 <= 1;
x416 <= 1;
x417 <= 1;
x418 <= 1;
x419 <= 1;
x421 <= 1;
x422 <= 1;
x423 <= 1;
x424 <= 1;
x425 <= 1;
x426 <= 1;
x427 <= 1;
x428 <= 1;
x429 <= 1;
x431 <= 1;
x432 <= 1;
x433 <= 1;
x434 <= 1;
x435 <= 1;
x436 <= 1;
x437 <= 1;
x438 <= 1;
x439 <= 1;
x441 <= 1;
x442 <= 1;
x443 <= 1;
x444 <= 1;
x445 <= 1;
x446 <= 1;
x447 <= 1;
x448 <= 1;
x449 <= 1;
x451 <= 1;
x452 <= 1;
x453 <= 1;
x454 <= 1;
x455 <= 1;
x456 <= 1;
x457 <= 1;
x458 <= 1;
x459 <= 1;
x461 <= 1;
x462 <= 1;
x463 <= 1;
x464 <= 1;
x465 <= 1;
x466 <= 1;
x467 <= 1;
x468 <= 1;
x469 <= 1;
x471 <= 1;
x472 <= 1;
x473 <= 1;
x474 <= 1;
x475 <= 1;
x476 <= 1;
x477 <= 1;
x478 <= 1;
x479 <= 1;
x481 <= 1;
x482 <= 1;
x483 <= 1;
x484 <= 1;
x485 <= 1;
x486 <= 1;
x487 <= 1;
x488 <= 1;
x489 <= 1;
x491 <= 1;
x492 <= 1;
x493 <= 1;
x494 <= 1;
x495 <= 1;
x496 <= 1;
x497 <= 1;
x498 <= 1;
x499 <= 1;
x511 <= 1;
x512 <= 1;
x513 <= 1;
x514 <= 1;
x515 <= 1;
x516 <= 1;
x517 <= 1;
x518 <= 1;
x519 <= 1;
x521 <= 1;
x522 <= 1;
x523 <= 1;
x524 <= 1;
x525 <= 1;
x526 <= 1;
x527 <= 1;
x528 <= 1;
x529 <= 1;
x531 <= 1;
x532 <= 1;
x533 <= 1;
x534 <= 1;
x535 <= 1;
x536 <= 1;
x537 <= 1;
x538 <= 1;
x539 <= 1;
x541 <= 1;
x542 <= 1;
x543 <= 1;
x544 <= 1;
x545 <= 1;
x546 <= 1;
x547 <= 1;
x548 <= 1;
x549 <= 1;
x551 <= 1;
x552 <= 1;
x553 <= 1;
x554 <= 1;
x555 <= 1;
x556 <= 1;
x557 <= 1;
x558 <= 1;
x559 <= 1;
x561 <= 1;
x562 <= 1;
x563 <= 1;
x564 <= 1;
x565 <= 1;
x566 <= 1;
x567 <= 1;
x568 <= 1;
x569 <= 1;
x571 <= 1;
x572 <= 1;
x573 <= 1;
x574 <= 1;
x575 <= 1;
x576 <= 1;
x577 <= 1;
x578 <= 1;
x579 <= 1;
x581 <= 1;
x582 <= 1;
x583 <= 1;
x584 <= 1;
x585 <= 1;
x586 <= 1;
x587 <= 1;
x588 <= 1;
x589 <= 1;
x591 <= 1;
x592 <= 1;
x593 <= 1;
x594 <= 1;
x595 <= 1;
x596 <= 1;
x597 <= 1;
x598 <= 1;
x599 <= 1;
x611 <= 1;
x612 <= 1;
x613 <= 1;
x614 <= 1;
x615 <= 1;
x616 <= 1;
x617 <= 1;
x618 <= 1;
x619 <= 1;
x621 <= 1;
x622 <= 1;
x623 <= 1;
x624 <= 1;
x625 <= 1;
x626 <= 1;
x627 <= 1;
x628 <= 1;
x629 <= 1;
x631 <= 1;
x632 <= 1;
x633 <= 1;
x634 <= 1;
x635 <= 1;
x636 <= 1;
x637 <= 1;
x638 <= 1;
x639 <= 1;
x641 <= 1;
x642 <= 1;
x643 <= 1;
x644 <= 1;
x645 <= 1;
x646 <= 1;
x647 <= 1;
x648 <= 1;
x649 <= 1;
x651 <= 1;
x652 <= 1;
x653 <= 1;
x654 <= 1;
x655 <= 1;
x656 <= 1;
x657 <= 1;
x658 <= 1;
x659 <= 1;
x661 <= 1;
x662 <= 1;
x663 <= 1;
x664 <= 1;
x665 <= 1;
x666 <= 1;
x667 <= 1;
x668 <= 1;
x669 <= 1;
x671 <= 1;
x672 <= 1;
x673 <= 1;
x674 <= 1;
x675 <= 1;
x676 <= 1;
x677 <= 1;
x678 <= 1;
x679 <= 1;
x681 <= 1;
x682 <= 1;
x683 <= 1;
x684 <= 1;
x685 <= 1;
x686 <= 1;
x687 <= 1;
x688 <= 1;
x689 <= 1;
x691 <= 1;
x692 <= 1;
x693 <= 1;
x694 <= 1;
x695 <= 1;
x696 <= 1;
x697 <= 1;
x698 <= 1;
x699 <= 1;
x711 <= 1;
x712 <= 1;
x713 <= 1;
x714 <= 1;
x715 <= 1;
x716 <= 1;
x717 <= 1;
x718 <= 1;
x719 <= 1;
x721 <= 1;
x722 <= 1;
x723 <= 1;
x724 <= 1;
x725 <= 1;
x726 <= 1;
x727 <= 1;
x728 <= 1;
x729 <= 1;
x731 <= 1;
x732 <= 1;
x733 <= 1;
x734 <= 1;
x735 <= 1;
x736 <= 1;
x737 <= 1;
x738 <= 1;
x739 <= 1;
x741 <= 1;
x742 <= 1;
x743 <= 1;
x744 <= 1;
x745 <= 1;
x746 <= 1;
x747 <= 1;
x748 <= 1;
x749 <= 1;
x751 <= 1;
x752 <= 1;
x753 <= 1;
x754 <= 1;
x755 <= 1;
x756 <= 1;
x757 <= 1;
x758 <= 1;
x759 <= 1;
x761 <= 1;
x762 <= 1;
x763 <= 1;
x764 <= 1;
x765 <= 1;
x766 <= 1;
x767 <= 1;
x768 <= 1;
x769 <= 1;
x771 <= 1;
x772 <= 1;
x773 <= 1;
x774 <= 1;
x775 <= 1;
x776 <= 1;
x777 <= 1;
x778 <= 1;
x779 <= 1;
x781 <= 1;
x782 <= 1;
x783 <= 1;
x784 <= 1;
x785 <= 1;
x786 <= 1;
x787 <= 1;
x788 <= 1;
x789 <= 1;
x791 <= 1;
x792 <= 1;
x793 <= 1;
x794 <= 1;
x795 <= 1;
x796 <= 1;
x797 <= 1;
x798 <= 1;
x799 <= 1;
x811 <= 1;
x812 <= 1;
x813 <= 1;
x814 <= 1;
x815 <= 1;
x816 <= 1;
x817 <= 1;
x818 <= 1;
x819 <= 1;
x821 <= 1;
x822 <= 1;
x823 <= 1;
x824 <= 1;
x825 <= 1;
x826 <= 1;
x827 <= 1;
x828 <= 1;
x829 <= 1;
x831 <= 1;
x832 <= 1;
x833 <= 1;
x834 <= 1;
x835 <= 1;
x836 <= 1;
x837 <= 1;
x838 <= 1;
x839 <= 1;
x841 <= 1;
x842 <= 1;
x843 <= 1;
x844 <= 1;
x845 <= 1;
x846 <= 1;
x847 <= 1;
x848 <= 1;
x849 <= 1;
x851 <= 1;
x852 <= 1;
x853 <= 1;
x854 <= 1;
x855 <= 1;
x856 <= 1;
x857 <= 1;
x858 <= 1;
x859 <= 1;
x861 <= 1;
x862 <= 1;
x863 <= 1;
x864 <= 1;
x865 <= 1;
x866 <= 1;
x867 <= 1;
x868 <= 1;
x869 <= 1;
x871 <= 1;
x872 <= 1;
x873 <= 1;
x874 <= 1;
x875 <= 1;
x876 <= 1;
x877 <= 1;
x878 <= 1;
x879 <= 1;
x881 <= 1;
x882 <= 1;
x883 <= 1;
x884 <= 1;
x885 <= 1;
x886 <= 1;
x887 <= 1;
x888 <= 1;
x889 <= 1;
x891 <= 1;
x892 <= 1;
x893 <= 1;
x894 <= 1;
x895 <= 1;
x896 <= 1;
x897 <= 1;
x898 <= 1;
x899 <= 1;
x911 <= 1;
x912 <= 1;
x913 <= 1;
x914 <= 1;
x915 <= 1;
x916 <= 1;
x917 <= 1;
x918 <= 1;
x919 <= 1;
x921 <= 1;
x922 <= 1;
x923 <= 1;
x924 <= 1;
x925 <= 1;
x926 <= 1;
x927 <= 1;
x928 <= 1;
x929 <= 1;
x931 <= 1;
x932 <= 1;
x933 <= 1;
x934 <= 1;
x935 <= 1;
x936 <= 1;
x937 <= 1;
x938 <= 1;
x939 <= 1;
x941 <= 1;
x942 <= 1;
x943 <= 1;
x944 <= 1;
x945 <= 1;
x946 <= 1;
x947 <= 1;
x948 <= 1;
x949 <= 1;
x951 <= 1;
x952 <= 1;
x953 <= 1;
x954 <= 1;
x955 <= 1;
x956 <= 1;
x957 <= 1;
x958 <= 1;
x959 <= 1;
x961 <= 1;
x962 <= 1;
x963 <= 1;
x964 <= 1;
x965 <= 1;
x966 <= 1;
x967 <= 1;
x968 <= 1;
x969 <= 1;
x971 <= 1;
x972 <= 1;
x973 <= 1;
x974 <= 1;
x975 <= 1;
x976 <= 1;
x977 <= 1;
x978 <= 1;
x979 <= 1;
x981 <= 1;
x982 <= 1;
x983 <= 1;
x984 <= 1;
x985 <= 1;
x986 <= 1;
x987 <= 1;
x988 <= 1;
x989 <= 1;
x991 <= 1;
x992 <= 1;
x993 <= 1;
x994 <= 1;
x995 <= 1;
x996 <= 1;
x997 <= 1;
x998 <= 1;
x999 <= 1;

/* Integer definitions */
int x111,x112,x113,x114,x115,x116,x117,x118,x119,x121,x122,x123,x124,x125,x126,x127,x128,x129,x131,x132,x133,x134,x135,x136,x137,x138,x139,x141,x142,x143,x144,x145,x146,x147,x148,x149,x151,x152,x153,x154,x155,x156,x157,x158,x159,x161,x162,x163,x164,x165,x166,x167,x168,x169,x171,x172,x173,x174,x175,x176,x177,x178,x179,x181,x182,x183,x184,x185,x186,x187,x188,x189,x191,x192,x193,x194,x195,x196,x197,x198,x199,x211,x212,x213,x214,x215,x216,x217,x218,x219,x221,x222,x223,x224,x225,x226,x227,x228,x229,x231,x232,x233,x234,x235,x236,x237,x238,x239,x241,x242,x243,x244,x245,x246,x247,x248,x249,x251,x252,x253,x254,x255,x256,x257,x258,x259,x261,x262,x263,x264,x265,x266,x267,x268,x269,x271,x272,x273,x274,x275,x276,x277,x278,x279,x281,x282,x283,x284,x285,x286,x287,x288,x289,x291,x292,x293,x294,x295,x296,x297,x298,x299,x311,x312,x313,x314,x315,x316,x317,x318,x319,x321,x322,x323,x324,x325,x326,x327,x328,x329,x331,x332,x333,x334,x335,x336,x337,x338,x339,x341,x342,x343,x344,x345,x346,x347,x348,x349,x351,x352,x353,x354,x355,x356,x357,x358,x359,x361,x362,x363,x364,x365,x366,x367,x368,x369,x371,x372,x373,x374,x375,x376,x377,x378,x379,x381,x382,x383,x384,x385,x386,x387,x388,x389,x391,x392,x393,x394,x395,x396,x397,x398,x399,x411,x412,x413,x414,x415,x416,x417,x418,x419,x421,x422,x423,x424,x425,x426,x427,x428,x429,x431,x432,x433,x434,x435,x436,x437,x438,x439,x441,x442,x443,x444,x445,x446,x447,x448,x449,x451,x452,x453,x454,x455,x456,x457,x458,x459,x461,x462,x463,x464,x465,x466,x467,x468,x469,x471,x472,x473,x474,x475,x476,x477,x478,x479,x481,x482,x483,x484,x485,x486,x487,x488,x489,x491,x492,x493,x494,x495,x496,x497,x498,x499,x511,x512,x513,x514,x515,x516,x517,x518,x519,x521,x522,x523,x524,x525,x526,x527,x528,x529,x531,x532,x533,x534,x535,x536,x537,x538,x539,x541,x542,x543,x544,x545,x546,x547,x548,x549,x551,x552,x553,x554,x555,x556,x557,x558,x559,x561,x562,x563,x564,x565,x566,x567,x568,x569,x571,x572,x573,x574,x575,x576,x577,x578,x579,x581,x582,x583,x584,x585,x586,x587,x588,x589,x591,x592,x593,x594,x595,x596,x597,x598,x599,x611,x612,x613,x614,x615,x616,x617,x618,x619,x621,x622,x623,x624,x625,x626,x627,x628,x629,x631,x632,x633,x634,x635,x636,x637,x638,x639,x641,x642,x643,x644,x645,x646,x647,x648,x649,x651,x652,x653,x654,x655,x656,x657,x658,x659,x661,x662,x663,x664,x665,x666,x667,x668,x669,x671,x672,x673,x674,x675,x676,x677,x678,x679,x681,x682,x683,x684,x685,x686,x687,x688,x689,x691,x692,x693,x694,x695,x696,x697,x698,x699,x711,x712,x713,x714,x715,x716,x717,x718,x719,x721,x722,x723,x724,x725,x726,x727,x728,x729,x731,x732,x733,x734,x735,x736,x737,x738,x739,x741,x742,x743,x744,x745,x746,x747,x748,x749,x751,x752,x753,x754,x755,x756,x757,x758,x759,x761,x762,x763,x764,x765,x766,x767,x768,x769,x771,x772,x773,x774,x775,x776,x777,x778,x779,x781,x782,x783,x784,x785,x786,x787,x788,x789,x791,x792,x793,x794,x795,x796,x797,x798,x799,x811,x812,x813,x814,x815,x816,x817,x818,x819,x821,x822,x823,x824,x825,x826,x827,x828,x829,x831,x832,x833,x834,x835,x836,x837,x838,x839,x841,x842,x843,x844,x845,x846,x847,x848,x849,x851,x852,x853,x854,x855,x856,x857,x858,x859,x861,x862,x863,x864,x865,x866,x867,x868,x869,x871,x872,x873,x874,x875,x876,x877,x878,x879,x881,x882,x883,x884,x885,x886,x887,x888,x889,x891,x892,x893,x894,x895,x896,x897,x898,x899,x911,x912,x913,x914,x915,x916,x917,x918,x919,x921,x922,x923,x924,x925,x926,x927,x928,x929,x931,x932,x933,x934,x935,x936,x937,x938,x939,x941,x942,x943,x944,x945,x946,x947,x948,x949,x951,x952,x953,x954,x955,x956,x957,x958,x959,x961,x962,x963,x964,x965,x966,x967,x968,x969,x971,x972,x973,x974,x975,x976,x977,x978,x979,x981,x982,x983,x984,x985,x986,x987,x988,x989,x991,x992,x993,x994,x995,x996,x997,x998,x999;
